N = 10;
H = 5;
T = 2;

avail = array3d(1..N, 1..H, 1..T, [0, 5, 5, 9, 7, 5, 3, 10, 0, 5, 0, 1, 9, 5, 1, 1, 3, 6, 1, 6, 4, 1, 10, 1, 6, 1, 5, 5, 1, 5, 5, 5, 1, 10, 8, 0, 4, 0, 0, 4, 9, 10, 1, 1, 4, 4, 5, 1, 6, 2, 3, 7, 8, 8, 1, 4, 2, 3, 10, 3, 9, 2, 8, 2, 5, 1, 0, 2, 1, 10, 8, 8, 5, 3, 10, 3, 1, 6, 10, 5, 6, 0, 9, 4, 6, 6, 7, 5, 6, 2, 6, 9, 0, 1, 0, 5, 9, 3, 4, 3]);

r = array2d(1..H, 1..T, [2, 4, 3, 2, 3, 1, 2, 2, 5, 1]);
